(set-logic QF_LRA)
(declare-fun x1 () Real)
(declare-fun x2 () Real)
(declare-fun x3 () Real)
(declare-fun x4 () Real)
(declare-fun x5 () Real)
(declare-fun x6 () Real)
(declare-fun x7 () Real)
(declare-fun x8 () Real)
(declare-fun x9 () Real)
(declare-fun x10 () Real)

(assert (>= (- 0 ( + ( + (* -9 x1) (* -1 x2) ) (* 10 x3) )) 0))
(assert (>= (- -3 ( + ( + (* -2 x4) (* -4 x1) ) (* 4 x2) )) 0))
(assert (>= (- 7 ( + ( + (* 9 x1) (* 2 x2) ) (* -9 x5) )) 0))
(assert (>= (- -1 ( + ( + (* -8 x1) (* -6 x5) ) (* 5 x6) )) 0))
(assert (>= (- -6 ( + ( + (* 4 x3) (* 5 x2) ) (* 4 x7) )) 0))
(assert (>= (- -1 ( + ( + (* 10 x1) (* 7 x2) ) (* 2 x8) )) 0))
(assert (>= (- 6 ( + ( + (* -6 x9) (* -10 x2) ) (* 7 x3) )) 0))
(assert (>= (- -6 ( + ( + (* 4 x10) (* 3 x6) ) (* -5 x1) )) 0))
(assert (>= (- 4 (* 2 x3)) 0))
(assert (>= (- -1 ( + ( + (* 9 x9) (* -2 x2) ) (* -7 x3) )) 0))
(assert (>= (- 10 ( + (* -6 x6) (* 6 x1) )) 0))
(assert (>= (- -2 (* -7 x1)) 0))
(assert (>= (- 1 ( + ( + (* -9 x2) (* -2 x1) ) (* 6 x3) )) 0))
(assert (>= (- -4 ( + (* 6 x2) (* -9 x3) )) 0))
(assert (>= (- -9 ( + ( + (* 4 x2) (* 8 x3) ) (* -4 x7) )) 0))
(assert (>= (- -3 (* 2 x1)) 0))
(assert (>= (- -10 ( + (* 2 x3) (* -5 x9) )) 0))
(assert (>= (- -8 ( + (* 5 x10) (* 2 x1) )) 0))
(assert (>= (- -1 x2) 0))
(assert (>= (- 4 ( + (* -8 x2) (* -1 x1) )) 0))
(check-sat)
(exit)